N = 13;
H = 6;
T = 2;

avail = array3d(1..N, 1..H, 1..T, [10, 2, 5, 4, 1, 5, 3, 5, 3, 9, 3, 6, 9, 7, 2, 3, 9, 7, 1, 5, 5, 5, 1, 4, 5, 7, 6, 3, 1, 9, 3, 7, 10, 7, 1, 5, 7, 4, 5, 3, 10, 10, 4, 3, 2, 9, 9, 8, 6, 2, 4, 8, 4, 8, 10, 5, 10, 5, 5, 6, 5, 8, 2, 9, 6, 3, 9, 6, 0, 2, 5, 6, 3, 1, 0, 3, 4, 10, 1, 5, 5, 6, 5, 5, 6, 10, 7, 5, 9, 7, 8, 8, 5, 4, 1, 6, 10, 7, 2, 7, 6, 3, 9, 2, 0, 10, 7, 9, 6, 1, 7, 8, 1, 5, 10, 10, 4, 7, 6, 5, 10, 10, 2, 4, 5, 4, 9, 1, 3, 1, 3, 8, 9, 5, 6, 7, 1, 2, 7, 0, 3, 0, 9, 9, 6, 7, 10, 2, 9, 6, 6, 5, 0, 1, 0, 7]);

r = array2d(1..H, 1..T, [4, 5, 4, 4, 4, 4, 3, 4, 0, 3, 1, 1]);
